10J3M/DAT/10J3MNTA-5.dat
10 3
27.3969 750.5901
30.7109 943.1594
31.3821 984.8362
25.1546 632.7539
32.2395 1039.3854
20.7941 432.3946
23.2554 540.8136
25.7903 665.1396
17.0423 290.44
24.409 595.7993
1718.828