10J3M/SOL/10J3MNTA-5.sol
solution status: optimal solution found
objective value:                     69.8947094887525
x#1#2                                               1 	(obj:0)
x#2#3                               0.446046985218573 	(obj:0)
x#3#3                                               1 	(obj:0)
x#4#2                                0.64020483604198 	(obj:0)
x#4#3                                0.35979516395802 	(obj:0)
x#5#1                               0.861452109596668 	(obj:0)
x#5#3                               0.138547890403332 	(obj:0)
x#7#2                               0.151845726430878 	(obj:0)
x#7#3                               0.848154273569122 	(obj:0)
x#8#1                               0.941594310319391 	(obj:0)
x#8#3                              0.0584056896806093 	(obj:0)
x#9#1                                               1 	(obj:0)
x#10#2                                              1 	(obj:0)
z                                    69.8947094887525 	(obj:1)
